
Gurobi 9.5.2 (mac64[arm]) logging started Mon Apr 24 19:30:04 2023

Set parameter LogFile to value "Java/output/pure_mip/scenario_seed_3_nJob_20_machineCount_1/mip_increment_2/log.txt"
Gurobi Optimizer version 9.5.2 build v9.5.2rc0 (mac64[arm])
Thread count: 8 physical cores, 8 logical processors, using up to 8 threads
Optimize a model with 594 rows, 4620 columns and 33626 nonzeros
Model fingerprint: 0x2988daac
Variable types: 0 continuous, 4620 integer (4620 binary)
Coefficient statistics:
  Matrix range     [1e+00, 2e+02]
  Objective range  [6e+00, 3e+06]
  Bounds range     [1e+00, 1e+00]
  RHS range        [1e+00, 1e+00]
Presolve removed 26 rows and 620 columns
Presolve time: 0.04s
Presolved: 568 rows, 4000 columns, 28474 nonzeros
Variable types: 0 continuous, 4000 integer (3990 binary)

Root relaxation: objective 1.429561e+05, 4020 iterations, 0.12 seconds (0.21 work units)

    Nodes    |    Current Node    |     Objective Bounds      |     Work
 Expl Unexpl |  Obj  Depth IntInf | Incumbent    BestBd   Gap | It/Node Time

     0     0 142956.053    0  144          - 142956.053      -     -    0s
     0     0 146984.542    0  229          - 146984.542      -     -    0s
H    0     0                    1.195701e+07 148362.047  98.8%     -    0s
H    0     0                    636083.00000 148362.047  76.7%     -    0s
H    0     0                    447133.00000 148362.047  66.8%     -    0s
     0     0 149789.046    0  232 447133.000 149789.046  66.5%     -    0s
H    0     0                    337685.00000 149789.046  55.6%     -    0s
     0     0 149789.046    0  245 337685.000 149789.046  55.6%     -    0s
     0     0 149789.046    0  245 337685.000 149789.046  55.6%     -    0s
     0     0 149789.046    0  251 337685.000 149789.046  55.6%     -    0s
     0     0 157158.438    0  266 337685.000 157158.438  53.5%     -    0s
     0     0 157259.716    0  268 337685.000 157259.716  53.4%     -    0s
     0     0 157267.645    0  270 337685.000 157267.645  53.4%     -    0s
     0     0 157267.692    0  277 337685.000 157267.692  53.4%     -    0s
     0     0 165671.672    0  296 337685.000 165671.672  50.9%     -    1s
H    0     0                    312131.00000 165671.672  46.9%     -    1s
     0     0 171942.011    0  290 312131.000 171942.011  44.9%     -    1s
     0     0 172608.668    0  297 312131.000 172608.668  44.7%     -    1s
     0     0 172685.593    0  296 312131.000 172685.593  44.7%     -    1s
     0     0 172685.593    0  298 312131.000 172685.593  44.7%     -    1s
H    0     0                    300085.00000 202230.565  32.6%     -    1s
H    0     0                    236473.00000 202230.565  14.5%     -    1s
H    0     0                    235065.00000 202230.565  14.0%     -    1s
     0     0 202230.565    0  277 235065.000 202230.565  14.0%     -    1s
     0     0 206850.034    0  273 235065.000 206850.034  12.0%     -    1s
     0     0 207317.133    0  271 235065.000 207317.133  11.8%     -    1s
     0     0 207332.593    0  253 235065.000 207332.593  11.8%     -    1s
     0     0 217399.476    0  313 235065.000 217399.476  7.52%     -    2s
     0     0 217399.476    0  142 235065.000 217399.476  7.52%     -    2s
     0     0 217399.476    0  239 235065.000 217399.476  7.52%     -    2s
     0     0 220864.538    0  238 235065.000 220864.538  6.04%     -    2s
     0     0 222183.719    0  243 235065.000 222183.719  5.48%     -    2s
     0     0 222430.346    0  263 235065.000 222430.346  5.37%     -    2s
     0     0 222430.346    0  267 235065.000 222430.346  5.37%     -    2s
     0     0 225112.965    0  303 235065.000 225112.965  4.23%     -    2s
     0     0 225468.644    0  268 235065.000 225468.644  4.08%     -    2s
     0     0 225516.686    0  267 235065.000 225516.686  4.06%     -    2s
     0     0 225516.958    0  273 235065.000 225516.958  4.06%     -    2s
     0     0 227363.571    0  266 235065.000 227363.571  3.28%     -    2s
H    0     0                    235051.00000 227363.571  3.27%     -    2s
     0     0 227762.239    0   49 235051.000 227762.239  3.10%     -    2s
     0     0 227762.500    0   40 235051.000 227762.500  3.10%     -    2s
     0     0 227763.000    0    6 235051.000 227763.000  3.10%     -    2s
H    0     0                    227763.00000 227763.000  0.00%     -    2s
     0     0 227763.000    0    6 227763.000 227763.000  0.00%     -    2s

Cutting planes:
  Cover: 3
  Clique: 52
  MIR: 32
  StrongCG: 15
  GUB cover: 56
  Zero half: 8
  RLT: 7
  Relax-and-lift: 2

Explored 1 nodes (39296 simplex iterations) in 2.60 seconds (4.58 work units)
Thread count was 8 (of 8 available processors)

Solution count 10: 227763 235051 235065 ... 1.1957e+07

Optimal solution found (tolerance 1.00e-04)
Best objective 2.277630000000e+05, best bound 2.277630000000e+05, gap 0.0000%
